50 4
58 30 58 41 14 79 79 39 96 64 98 75 41 52 16 26 28 23 61 63 62 82 98 75 52 61 44 91 40 61 47 75 92 63 39 61 12 57 29 64 47 37 92 72 34 108 80 23 64 73
46 50 75 27 37 61 83 32 83 63 76 99 39 37 25 24 22 35 36 66 66 85 109 73 72 70 40 101 40 52 55 78 78 39 32 61 18 39 42 60 55 35 89 70 40 95 77 31 64 85
60 52 68 41 24 74 78 31 80 46 98 77 28 57 20 13 14 11 33 59 45 77 87 84 57 55 39 103 15 51 52 94 64 51 53 46 25 33 46 67 33 39 92 70 54 86 80 28 50 85
67 44 47 36 31 72 86 35 76 65 81 84 36 48 18 27 18 15 40 59 73 76 99 89 47 72 54 88 26 58 37 69 85 48 55 55 24 33 46 63 45 57 91 66 62 86 85 22 62 89
